     Program PWSCF v.6.5 starts on 14May2024 at 15: 0:57

     R & G space division:  proc/nbgrp/npool/nimage =      16
     Waiting for input...
     Reading input from standard input
Warning: card &CELL ignored
Warning: card / ignored

     Current dimensions of program PWSCF are:
     Max number of different atomic species (ntypx) = 10
     Max number of k-points (npk) =  40000
     Max angular momentum in pseudopotentials (lmaxx) =  3

     Subspace diagonalization in iterative solution of the eigenvalue problem:
     a serial algorithm will be used

     bravais-lattice index     =            1
     lattice parameter (alat)  =      22.8531  a.u.
     unit-cell volume          =   11935.3637 (a.u.)^3
     number of atoms/cell      =           64
     number of atomic types    =            2
     number of electrons       =       568.00
     number of Kohn-Sham states=          500
     kinetic-energy cutoff     =      25.0000  Ry
     charge density cutoff     =     100.0000  Ry
     convergence threshold     =      1.0E-07
     mixing beta               =       0.7000
     number of iterations used =            8  plain     mixing
     Exchange-correlation= SLA  PW   PSX  PSC
                           (   1   4  10   8   0   0   0)
     nstep                     =           50

     celldm(1)=  22.853105  celldm(2)=   0.000000  celldm(3)=   0.000000
     celldm(4)=   0.000000  celldm(5)=   0.000000  celldm(6)=   0.000000

     crystal axes: (cart. coord. in units of alat)
               a(1) = (   1.000000   0.000000   0.000000 )
               a(2) = (   0.000000   1.000000   0.000000 )
               a(3) = (   0.000000   0.000000   1.000000 )

     reciprocal axes: (cart. coord. in units 2 pi/alat)
               b(1) = (  1.000000  0.000000  0.000000 )
               b(2) = (  0.000000  1.000000  0.000000 )
               b(3) = (  0.000000  0.000000  1.000000 )

     PseudoPot. # 1 for In read from file:
     /work/09550/ashipley/stampede3/PP/in_pbesol_v1.4.uspp.F.UPF
     MD5 check sum: e433ca97da0ddf4e85828ac3dca7e814
     Pseudo is Ultrasoft + core correction, Zval = 13.0
     Generated by new atomic code, or converted to UPF format
     Using radial grid of  889 points,  6 beta functions with:
                l(1) =   0
                l(2) =   0
                l(3) =   1
                l(4) =   1
                l(5) =   2
                l(6) =   2
     Q(r) pseudized with  6 coefficients,  rinner =    1.400   1.400   1.400
                                                       1.400   1.400

     PseudoPot. # 2 for As read from file:
     /work/09550/ashipley/stampede3/PP/as_pbesol_v1.uspp.F.UPF
     MD5 check sum: 90d6127a473f66d6a49077fb6be097f2
     Pseudo is Ultrasoft + core correction, Zval =  5.0
     Generated by new atomic code, or converted to UPF format
     Using radial grid of  875 points,  6 beta functions with:
                l(1) =   0
                l(2) =   0
                l(3) =   1
                l(4) =   1
                l(5) =   2
                l(6) =   2
     Q(r) pseudized with  8 coefficients,  rinner =    1.300   1.300   1.300
                                                       1.300   1.300

     atomic species   valence    mass     pseudopotential
        In            13.00   114.81800     In( 1.00)
        As             5.00    74.92160     As( 1.00)

     Starting magnetic structure
     atomic species   magnetization
        In           0.000
        As           0.000

     24 Sym. Ops. (no inversion) found

                                    s                        frac. trans.

      isym =  1     identity

 cryst.   s( 1) = (     1          0          0      )
                  (     0          1          0      )
                  (     0          0          1      )

 cart.    s( 1) = (  1.0000000  0.0000000  0.0000000 )
                  (  0.0000000  1.0000000  0.0000000 )
                  (  0.0000000  0.0000000  1.0000000 )

      isym =  2     180 deg rotation - cart. axis [0,0,1]

[...]

 cryst.   s( 9) = (     0          1          0      )
                  (     0          0          1      )
                  (     1          0          0      )

 cart.    s( 9) = (  0.0000000  0.0000000  1.0000000 )
                  (  1.0000000  0.0000000  0.0000000 )
                  (  0.0000000  1.0000000  0.0000000 )

[...]

 cryst.   s(10) = (     0         -1          0      )
                  (     0          0         -1      )
                  (     1          0          0      )

 cart.    s(10) = (  0.0000000  0.0000000  1.0000000 )
                  ( -1.0000000  0.0000000  0.0000000 )
                  (  0.0000000 -1.0000000  0.0000000 )

[...]

      isym = 12     120 deg rotation - cart. axis [-1,-1,1]

[...]

      isym = 13     inv. 180 deg rotation - cart. axis [1,1,0]

[...]

      isym = 24     inv.  90 deg rotation - cart. axis [1,0,0]

 cryst.   s(24) = (    -1          0          0      )
                  (     0          0         -1      )
                  (     0          1          0      )

 cart.    s(24) = ( -1.0000000  0.0000000  0.0000000 )
                  (  0.0000000  0.0000000  1.0000000 )
                  (  0.0000000 -1.0000000  0.0000000 )

     point group T_d (-43m)
     there are  5 classes
     the character table:

       E     8C3   3C2   6S4   6s_d
A_1    1.00  1.00  1.00  1.00  1.00
A_2    1.00  1.00  1.00 -1.00 -1.00
E      2.00 -1.00  2.00  0.00  0.00
T_1    3.00  0.00 -1.00  1.00 -1.00
T_2    3.00  0.00 -1.00 -1.00  1.00

     the symmetry operations in each class and the name of the first element:

     E        1
          identity
     8C3      5    7    8    6   12    9   10   11
          120 deg rotation - cart. axis [-1,-1,-1]
     3C2      2    3    4
          180 deg rotation - cart. axis [0,0,1]
     6S4     15   16   20   19   23   24
          inv.  90 deg rotation - cart. axis [0,0,-1]
     6s_d    13   14   17   18   21   22
          inv. 180 deg rotation - cart. axis [1,1,0]

   Cartesian axes

     site n.     atom                  positions (alat units)
         1           As  tau(   1) = (   0.0000000   0.0000000   0.0000000  )
         2           In  tau(   2) = (   0.0000000   0.0000000   0.5000000  )
         3           In  tau(   3) = (   0.0000000   0.5000000   0.0000000  )
         4           In  tau(   4) = (   0.0000000   0.5000000   0.5000000  )
         5           In  tau(   5) = (   0.5000000   0.0000000   0.0000000  )
         6           In  tau(   6) = (   0.5000000   0.0000000   0.5000000  )
         7           In  tau(   7) = (   0.5000000   0.5000000   0.0000000  )
         8           In  tau(   8) = (   0.5000000   0.5000000   0.5000000  )
         9           In  tau(   9) = (   0.0000000   0.2500000   0.2500000  )
        10           In  tau(  10) = (   0.0000000   0.2500000   0.7500000  )
        11           In  tau(  11) = (   0.0000000   0.7500000   0.2500000  )
        12           In  tau(  12) = (   0.0000000   0.7500000   0.7500000  )
        13           In  tau(  13) = (   0.5000000   0.2500000   0.2500000  )
        14           In  tau(  14) = (   0.5000000   0.2500000   0.7500000  )
        15           In  tau(  15) = (   0.5000000   0.7500000   0.2500000  )
        16           In  tau(  16) = (   0.5000000   0.7500000   0.7500000  )
        17           In  tau(  17) = (   0.2500000   0.0000000   0.2500000  )
        18           In  tau(  18) = (   0.2500000   0.0000000   0.7500000  )
        19           In  tau(  19) = (   0.2500000   0.5000000   0.2500000  )
        20           In  tau(  20) = (   0.2500000   0.5000000   0.7500000  )
        21           In  tau(  21) = (   0.7500000   0.0000000   0.2500000  )
        22           In  tau(  22) = (   0.7500000   0.0000000   0.7500000  )
        23           In  tau(  23) = (   0.7500000   0.5000000   0.2500000  )
        24           In  tau(  24) = (   0.7500000   0.5000000   0.7500000  )
        25           In  tau(  25) = (   0.2500000   0.2500000   0.0000000  )
        26           In  tau(  26) = (   0.2500000   0.2500000   0.5000000  )
        27           In  tau(  27) = (   0.2500000   0.7500000   0.0000000  )
        28           In  tau(  28) = (   0.2500000   0.7500000   0.5000000  )
        29           In  tau(  29) = (   0.7500000   0.2500000   0.0000000  )
        30           In  tau(  30) = (   0.7500000   0.2500000   0.5000000  )
        31           In  tau(  31) = (   0.7500000   0.7500000   0.0000000  )
        32           In  tau(  32) = (   0.7500000   0.7500000   0.5000000  )
        33           As  tau(  33) = (   0.3750000   0.3750000   0.3750000  )
        34           As  tau(  34) = (   0.3750000   0.3750000   0.8750000  )
        35           As  tau(  35) = (   0.3750000   0.8750000   0.3750000  )
        36           As  tau(  36) = (   0.3750000   0.8750000   0.8750000  )
        37           As  tau(  37) = (   0.8750000   0.3750000   0.3750000  )
        38           As  tau(  38) = (   0.8750000   0.3750000   0.8750000  )
        39           As  tau(  39) = (   0.8750000   0.8750000   0.3750000  )
        40           As  tau(  40) = (   0.8750000   0.8750000   0.8750000  )
        41           As  tau(  41) = (   0.3750000   0.1250000   0.1250000  )
        42           As  tau(  42) = (   0.3750000   0.1250000   0.6250000  )
        43           As  tau(  43) = (   0.3750000   0.6250000   0.1250000  )
        44           As  tau(  44) = (   0.3750000   0.6250000   0.6250000  )
        45           As  tau(  45) = (   0.8750000   0.1250000   0.1250000  )
        46           As  tau(  46) = (   0.8750000   0.1250000   0.6250000  )
        47           As  tau(  47) = (   0.8750000   0.6250000   0.1250000  )
        48           As  tau(  48) = (   0.8750000   0.6250000   0.6250000  )
        49           As  tau(  49) = (   0.1250000   0.3750000   0.1250000  )
        50           As  tau(  50) = (   0.1250000   0.3750000   0.6250000  )
        51           As  tau(  51) = (   0.1250000   0.8750000   0.1250000  )
        52           As  tau(  52) = (   0.1250000   0.8750000   0.6250000  )
        53           As  tau(  53) = (   0.6250000   0.3750000   0.1250000  )
        54           As  tau(  54) = (   0.6250000   0.3750000   0.6250000  )
        55           As  tau(  55) = (   0.6250000   0.8750000   0.1250000  )
        56           As  tau(  56) = (   0.6250000   0.8750000   0.6250000  )
        57           As  tau(  57) = (   0.1250000   0.1250000   0.3750000  )
        58           As  tau(  58) = (   0.1250000   0.1250000   0.8750000  )
        59           As  tau(  59) = (   0.1250000   0.6250000   0.3750000  )
        60           As  tau(  60) = (   0.1250000   0.6250000   0.8750000  )
        61           As  tau(  61) = (   0.6250000   0.1250000   0.3750000  )
        62           As  tau(  62) = (   0.6250000   0.1250000   0.8750000  )
        63           As  tau(  63) = (   0.6250000   0.6250000   0.3750000  )
        64           As  tau(  64) = (   0.6250000   0.6250000   0.8750000  )

   Crystallographic axes

     site n.     atom                  positions (cryst. coord.)
[...]
     atom   37 type  2   force =    -0.00013202   -0.00001511   -0.00001511
     atom   38 type  2   force =     0.00023233    0.00029184    0.00023233
     atom   39 type  2   force =     0.00023233    0.00023233    0.00029184
     atom   40 type  2   force =    -0.00370947   -0.00370947   -0.00370947
     atom   41 type  2   force =     0.00029184   -0.00023233   -0.00023233
     atom   42 type  2   force =    -0.00001511    0.00013202    0.00001511
     atom   43 type  2   force =    -0.00001511    0.00001511    0.00013202
     atom   44 type  2   force =     0.00009896   -0.00009896   -0.00009896
     atom   45 type  2   force =    -0.00370947    0.00370947    0.00370947
     atom   46 type  2   force =     0.00023233   -0.00023233   -0.00029184
     atom   47 type  2   force =     0.00023233   -0.00029184   -0.00023233
     atom   48 type  2   force =    -0.00013202    0.00001511    0.00001511
     atom   49 type  2   force =    -0.00023233    0.00029184   -0.00023233
     atom   50 type  2   force =     0.00013202   -0.00001511    0.00001511
     atom   51 type  2   force =     0.00370947   -0.00370947    0.00370947
     atom   52 type  2   force =    -0.00023233    0.00023233   -0.00029184
     atom   53 type  2   force =     0.00001511   -0.00001511    0.00013202
     atom   54 type  2   force =    -0.00009896    0.00009896   -0.00009896
     atom   55 type  2   force =    -0.00029184    0.00023233   -0.00023233
     atom   56 type  2   force =     0.00001511   -0.00013202    0.00001511
     atom   57 type  2   force =    -0.00023233   -0.00023233    0.00029184
     atom   58 type  2   force =     0.00370947    0.00370947   -0.00370947
     atom   59 type  2   force =     0.00013202    0.00001511   -0.00001511
     atom   60 type  2   force =    -0.00023233   -0.00029184    0.00023233
     atom   61 type  2   force =     0.00001511    0.00013202   -0.00001511
     atom   62 type  2   force =    -0.00029184   -0.00023233    0.00023233
     atom   63 type  2   force =    -0.00009896   -0.00009896    0.00009896
     atom   64 type  2   force =     0.00001511    0.00001511   -0.00013202
     The Hubbard contrib.    to forces
     atom    1 type  2   force =     0.00000000    0.00000000    0.00000000
     atom    2 type  1   force =     0.00000000    0.00000000    0.00000000
     atom    3 type  1   force =     0.00000000    0.00000000    0.00000000
     atom    4 type  1   force =     0.00000000    0.00000000    0.00000000
     atom    5 type  1   force =     0.00000000    0.00000000    0.00000000
     atom    6 type  1   force =     0.00000000    0.00000000    0.00000000
     atom    7 type  1   force =     0.00000000    0.00000000    0.00000000
     atom    8 type  1   force =     0.00000000    0.00000000    0.00000000
     atom    9 type  1   force =     0.00000000    0.00000000    0.00000000
     atom   10 type  1   force =     0.00000000    0.00000000    0.00000000
     atom   11 type  1   force =     0.00000000    0.00000000    0.00000000
     atom   12 type  1   force =     0.00000000    0.00000000    0.00000000
     atom   13 type  1   force =     0.00000000    0.00000000    0.00000000
     atom   14 type  1   force =     0.00000000    0.00000000    0.00000000
     atom   15 type  1   force =     0.00000000    0.00000000    0.00000000
     atom   16 type  1   force =     0.00000000    0.00000000    0.00000000
     atom   17 type  1   force =     0.00000000    0.00000000    0.00000000
     atom   18 type  1   force =     0.00000000    0.00000000    0.00000000
     atom   19 type  1   force =     0.00000000    0.00000000    0.00000000
     atom   20 type  1   force =     0.00000000    0.00000000    0.00000000
     atom   21 type  1   force =     0.00000000    0.00000000    0.00000000
     atom   22 type  1   force =     0.00000000    0.00000000    0.00000000
     atom   23 type  1   force =     0.00000000    0.00000000    0.00000000
     atom   24 type  1   force =     0.00000000    0.00000000    0.00000000
     atom   25 type  1   force =     0.00000000    0.00000000    0.00000000
     atom   26 type  1   force =     0.00000000    0.00000000    0.00000000
     atom   27 type  1   force =     0.00000000    0.00000000    0.00000000
     atom   28 type  1   force =     0.00000000    0.00000000    0.00000000
     atom   29 type  1   force =     0.00000000    0.00000000    0.00000000
     atom   30 type  1   force =     0.00000000    0.00000000    0.00000000
     atom   31 type  1   force =     0.00000000    0.00000000    0.00000000
     atom   32 type  1   force =     0.00000000    0.00000000    0.00000000
     atom   33 type  2   force =     0.00000000    0.00000000    0.00000000
     atom   34 type  2   force =     0.00000000    0.00000000    0.00000000
     atom   35 type  2   force =     0.00000000    0.00000000    0.00000000
     atom   36 type  2   force =     0.00000000    0.00000000    0.00000000
     atom   37 type  2   force =     0.00000000    0.00000000    0.00000000
     atom   38 type  2   force =     0.00000000    0.00000000    0.00000000
     atom   39 type  2   force =     0.00000000    0.00000000    0.00000000
     atom   40 type  2   force =     0.00000000    0.00000000    0.00000000
     atom   41 type  2   force =     0.00000000    0.00000000    0.00000000
     atom   42 type  2   force =     0.00000000    0.00000000    0.00000000
     atom   43 type  2   force =     0.00000000    0.00000000    0.00000000
     atom   44 type  2   force =     0.00000000    0.00000000    0.00000000
     atom   45 type  2   force =     0.00000000    0.00000000    0.00000000
     atom   46 type  2   force =     0.00000000    0.00000000    0.00000000
     atom   47 type  2   force =     0.00000000    0.00000000    0.00000000
     atom   48 type  2   force =     0.00000000    0.00000000    0.00000000
     atom   49 type  2   force =     0.00000000    0.00000000    0.00000000
     atom   50 type  2   force =     0.00000000    0.00000000    0.00000000
     atom   51 type  2   force =     0.00000000    0.00000000    0.00000000
     atom   52 type  2   force =     0.00000000    0.00000000    0.00000000
     atom   53 type  2   force =     0.00000000    0.00000000    0.00000000
     atom   54 type  2   force =     0.00000000    0.00000000    0.00000000
     atom   55 type  2   force =     0.00000000    0.00000000    0.00000000
     atom   56 type  2   force =     0.00000000    0.00000000    0.00000000
     atom   57 type  2   force =     0.00000000    0.00000000    0.00000000
     atom   58 type  2   force =     0.00000000    0.00000000    0.00000000
     atom   59 type  2   force =     0.00000000    0.00000000    0.00000000
     atom   60 type  2   force =     0.00000000    0.00000000    0.00000000
     atom   61 type  2   force =     0.00000000    0.00000000    0.00000000
     atom   62 type  2   force =     0.00000000    0.00000000    0.00000000
     atom   63 type  2   force =     0.00000000    0.00000000    0.00000000
     atom   64 type  2   force =     0.00000000    0.00000000    0.00000000
     The SCF correction term to forces
     atom    1 type  2   force =    -0.00000000   -0.00000000   -0.00000000
     atom    2 type  1   force =     0.00000000    0.00000000   -0.00000000
     atom    3 type  1   force =     0.00000000   -0.00000000    0.00000000
     atom    4 type  1   force =     0.00000000   -0.00000000   -0.00000000
     atom    5 type  1   force =     0.00000000    0.00000000    0.00000000
     atom    6 type  1   force =     0.00000000   -0.00000000   -0.00000000
     atom    7 type  1   force =     0.00000000   -0.00000000    0.00000000
     atom    8 type  1   force =     0.00000000    0.00000000   -0.00000000
     atom    9 type  1   force =    -0.00000450    0.00001363    0.00001363
     atom   10 type  1   force =     0.00000450    0.00001363   -0.00001363
     atom   11 type  1   force =     0.00000450   -0.00001363    0.00001363
     atom   12 type  1   force =    -0.00000450   -0.00001363   -0.00001363
     atom   13 type  1   force =     0.00000542   -0.00000015   -0.00000015
     atom   14 type  1   force =    -0.00000542   -0.00000015    0.00000015
     atom   15 type  1   force =    -0.00000542    0.00000015   -0.00000015
     atom   16 type  1   force =     0.00000542    0.00000015    0.00000015
     atom   17 type  1   force =     0.00001363   -0.00000450    0.00001363
     atom   18 type  1   force =     0.00001363    0.00000450   -0.00001363
     atom   19 type  1   force =    -0.00000015    0.00000542   -0.00000015
     atom   20 type  1   force =    -0.00000015   -0.00000542    0.00000015
     atom   21 type  1   force =    -0.00001363    0.00000450    0.00001363
     atom   22 type  1   force =    -0.00001363   -0.00000450   -0.00001363
     atom   23 type  1   force =     0.00000015   -0.00000542   -0.00000015
     atom   24 type  1   force =     0.00000015    0.00000542    0.00000015
     atom   25 type  1   force =     0.00001363    0.00001363   -0.00000450
     atom   26 type  1   force =    -0.00000015   -0.00000015    0.00000542
     atom   27 type  1   force =     0.00001363   -0.00001363    0.00000450
     atom   28 type  1   force =    -0.00000015    0.00000015   -0.00000542
     atom   29 type  1   force =    -0.00001363    0.00001363    0.00000450
     atom   30 type  1   force =     0.00000015   -0.00000015   -0.00000542
     atom   31 type  1   force =    -0.00001363   -0.00001363   -0.00000450
     atom   32 type  1   force =     0.00000015    0.00000015    0.00000542
     atom   33 type  2   force =    -0.00000016   -0.00000016   -0.00000016
     atom   34 type  2   force =    -0.00000077   -0.00000077   -0.00000181
     atom   35 type  2   force =    -0.00000077   -0.00000181   -0.00000077
     atom   36 type  2   force =     0.00000373   -0.00000229   -0.00000229
     atom   37 type  2   force =    -0.00000181   -0.00000077   -0.00000077
     atom   38 type  2   force =    -0.00000229    0.00000373   -0.00000229
     atom   39 type  2   force =    -0.00000229   -0.00000229    0.00000373
     atom   40 type  2   force =    -0.00000590   -0.00000590   -0.00000590
     atom   41 type  2   force =     0.00000373    0.00000229    0.00000229
     atom   42 type  2   force =    -0.00000077    0.00000181    0.00000077
     atom   43 type  2   force =    -0.00000077    0.00000077    0.00000181
     atom   44 type  2   force =    -0.00000016    0.00000016    0.00000016
     atom   45 type  2   force =    -0.00000590    0.00000590    0.00000590
     atom   46 type  2   force =    -0.00000229    0.00000229   -0.00000373
     atom   47 type  2   force =    -0.00000229   -0.00000373    0.00000229
     atom   48 type  2   force =    -0.00000181    0.00000077    0.00000077
     atom   49 type  2   force =     0.00000229    0.00000373    0.00000229
     atom   50 type  2   force =     0.00000181   -0.00000077    0.00000077
     atom   51 type  2   force =     0.00000590   -0.00000590    0.00000590
     atom   52 type  2   force =     0.00000229   -0.00000229   -0.00000373
     atom   53 type  2   force =     0.00000077   -0.00000077    0.00000181
     atom   54 type  2   force =     0.00000016   -0.00000016    0.00000016
     atom   55 type  2   force =    -0.00000373   -0.00000229    0.00000229
     atom   56 type  2   force =     0.00000077   -0.00000181    0.00000077
     atom   57 type  2   force =     0.00000229    0.00000229    0.00000373
     atom   58 type  2   force =     0.00000590    0.00000590   -0.00000590
     atom   59 type  2   force =     0.00000181    0.00000077   -0.00000077
     atom   60 type  2   force =     0.00000229   -0.00000373   -0.00000229
     atom   61 type  2   force =     0.00000077    0.00000181   -0.00000077
     atom   62 type  2   force =    -0.00000373    0.00000229   -0.00000229
     atom   63 type  2   force =     0.00000016    0.00000016   -0.00000016
     atom   64 type  2   force =     0.00000077    0.00000077   -0.00000181

     Total force =     0.003867     Total SCF correction =     0.000076

     bfgs converged in   5 scf cycles and   4 bfgs steps
     (criteria: energy <  1.0E-04 Ry, force <  1.0E-03 Ry/Bohr)

     End of BFGS Geometry Optimization

     Final energy   =   -5445.1534154850 Ry
Begin final coordinates

ATOMIC_POSITIONS (crystal)
As            0.0000000000        0.0000000000        0.0000000000
In            0.0000000000        0.0000000000        0.5000000000
In            0.0000000000        0.5000000000        0.0000000000
In            0.0000000000        0.5000000000        0.5000000000
In            0.5000000000        0.0000000000        0.0000000000
In            0.5000000000        0.0000000000        0.5000000000
In            0.5000000000        0.5000000000        0.0000000000
In            0.5000000000        0.5000000000        0.5000000000
In            0.0006947837        0.2501563472        0.2501563472
In           -0.0006947837        0.2501563472        0.7498436528
In           -0.0006947837        0.7498436528        0.2501563472
In            0.0006947837        0.7498436528        0.7498436528
In            0.4998783164        0.2500438960        0.2500438960
In            0.5001216836        0.2500438960        0.7499561040
In            0.5001216836        0.7499561040        0.2500438960
In            0.4998783164        0.7499561040        0.7499561040
In            0.2501563472        0.0006947837        0.2501563472
In            0.2501563472       -0.0006947837        0.7498436528
In            0.2500438960        0.4998783164        0.2500438960
In            0.2500438960        0.5001216836        0.7499561040
In            0.7498436528       -0.0006947837        0.2501563472
In            0.7498436528        0.0006947837        0.7498436528
In            0.7499561040        0.5001216836        0.2500438960
In            0.7499561040        0.4998783164        0.7499561040
In            0.2501563472        0.2501563472        0.0006947837
In            0.2500438960        0.2500438960        0.4998783164
In            0.2501563472        0.7498436528       -0.0006947837
In            0.2500438960        0.7499561040        0.5001216836
In            0.7498436528        0.2501563472       -0.0006947837
In            0.7499561040        0.2500438960        0.5001216836
In            0.7498436528        0.7498436528        0.0006947837
In            0.7499561040        0.7499561040        0.4998783164
As            0.3750028310        0.3750028310        0.3750028310
As            0.3748097124        0.3748097124        0.8748105707
As            0.3748097124        0.8748105707        0.3748097124
As            0.3750794868        0.8751006187        0.8751006187
As            0.8748105707        0.3748097124        0.3748097124
As            0.8751006187        0.3750794868        0.8751006187
As            0.8751006187        0.8751006187        0.3750794868
As            0.8759532371        0.8759532371        0.8759532371
As            0.3750794868        0.1248993813        0.1248993813
As            0.3748097124        0.1251894293        0.6251902876
As            0.3748097124        0.6251902876        0.1251894293
As            0.3750028310        0.6249971690        0.6249971690
As            0.8759532371        0.1240467629        0.1240467629
As            0.8751006187        0.1248993813        0.6249205132
As            0.8751006187        0.6249205132        0.1248993813
As            0.8748105707        0.6251902876        0.6251902876
As            0.1248993813        0.3750794868        0.1248993813
As            0.1251894293        0.3748097124        0.6251902876
As            0.1240467629        0.8759532371        0.1240467629
As            0.1248993813        0.8751006187        0.6249205132
As            0.6251902876        0.3748097124        0.1251894293
As            0.6249971690        0.3750028310        0.6249971690
As            0.6249205132        0.8751006187        0.1248993813
As            0.6251902876        0.8748105707        0.6251902876
As            0.1248993813        0.1248993813        0.3750794868
As            0.1240467629        0.1240467629        0.8759532371
As            0.1251894293        0.6251902876        0.3748097124
As            0.1248993813        0.6249205132        0.8751006187
As            0.6251902876        0.1251894293        0.3748097124
As            0.6249205132        0.1248993813        0.8751006187
As            0.6249971690        0.6249971690        0.3750028310
As            0.6251902876        0.6251902876        0.8748105707
End final coordinates

     Writing output data file ./temp/inas.save/

     General routines

     Parallel routines

   This run was terminated on:  16:13:48  14May2024

   JOB DONE.
TACC:  Shutdown complete. Exiting.